(set-info :Origin "This instance was generated by: BanditFuzz-- an RL fuzzer for SMT solvers" )
(set-info :Author "Joe Scott, Fed Mora, Vijay Ganesh" )
(set-info :Contact "Joe Scott, joseph.scott@uwaterloo.ca")
(set-logic QF_BV)
(declare-const bool_0 Bool)
(declare-const bool_1 Bool)
(declare-const bool_2 Bool)
(declare-const bool_3 Bool)
(declare-const bool_4 Bool)
(declare-const bv_0 (_ BitVec 32))
(declare-const bv_1 (_ BitVec 32))
(declare-const bv_2 (_ BitVec 32))
(declare-const bv_3 (_ BitVec 32))
(declare-const bv_4 (_ BitVec 32))
(assert (bvsgt (bvudiv (bvxnor #x7bbbccc7  #x8fafa31f ) (bvlshr bv_2 bv_2)) (bvshl (bvshl bv_1 #x33994352 ) (bvshl #x208fc485  bv_2))))
(assert (or (bvugt (bvsdiv #x23537d70  bv_0) (bvor #xc6bff54f  bv_1)) (bvugt (bvsmod #x48789ea7  #xc28db45f ) (bvxor bv_4 bv_0))))
(assert (bvsle (bvnand (bvadd #x66e5ca6e  bv_3) (bvashr bv_3 #x8c832c0d )) (bvsub (bvnor bv_3 #xd956c68e ) (bvashr #x387ee8b3  #x3cb154d1 ))))
(assert (and (xor (=> bool_2 true) (=> true bool_1)) (bvule (bvsrem #x9c04d3ea  bv_2) (bvand #x7932083f  bv_3))))
(assert (=> (or (bvule bv_3 #x2a70b123 ) (or bool_4 false)) (bvsle (bvsmod bv_2 bv_1) (bvsdiv bv_2 bv_2))))
(check-sat)
(exit)
